NAME : P-n8_1
TYPE : CVRP
DIMENSION : 8
EDGE_WEIGHT_TYPE : EUC_2D
CAPACITY : 5
NODE_COORD_SECTION
1 30 40
2 37 52
3 49 49
4 52 64
5 31 62
6 52 33
7 42 41
8 52 41
DEMAND_SECTION 
1 0 
2 1
3 1
4 1
5 1
6 1
7 1
8 1
DEPOT_SECTION
1
-1